c Output_time 26.03.2020 18:15:28_+0100 1585242928382881255
c ** Program information **
c program_name                          "QBRG_debug"
c version                               "0.3.20"
c date                                  "25.3.2020"
c gid_id                                "673970833836058123f633335630c185360d632e"
c author                                "Oliver Kullmann"
c url                                   "https://github.com/OKullmann/oklibrary/blob/master/Satisfiability/Transformers/Generators/Random/QBRG.cpp"
c ** Machine information **
c machine_name                          "chyna-Lenovo-G50-70"
c bogomips                              3791.08
c ** Compilation information **
c compiler_version                      "g++ 7.5.0"
c compilation_date                      "Mar_26_2020 11:16:30"
c compilation_options                   "--std=c++17 -pedantic -fmax-errors=5 -Wall -Wextra -g -D_GLIBCXX_DEBUG"
c NDEBUG                                0
c OPTIMIZE                              0
c ** Parameters **
c command-line                          "./QBRG_debug" "a40 e40 a40 40" "561*1,1|2-2,1|3-3,1|4-4,1" "" "1,t" ""
c output                                "QuBlRaGe_160_561_1585242928382712442.qdimacs"
c options                               "filtered,renamed"
c num_quantifier_blocks                 4
c  quantifier_blocks                    1:a1-40 2:e41-80 3:a81-120 4:e121-160
c num_clause-blocks                     1
c  clause-blocks                        561 * {1-40,1,1/2} | {41-80,1,1/2} | {81-120,1,1/2} | {121-160,1,1/2}
c num_e-seeds                           37+2=39
c  e-seeds                              1 0 1 0 5 160 2 40 0 40 1 40 0 40 1 561 4 1 1 1 1 2 2 2 1 1 2 3 3 1 1 2 4 4 1 1 2 1 1585242928382711509
p cnf 160 561
a 1 2 3 4 5 6 7 8 9 10 11 12 13 14 15 16 17 18 19 20 21 22 23 24 25 26 27 28 29 30 31 32 33 34 35 36 37 38 39 40 0
e 41 42 43 44 45 46 47 48 49 50 51 52 53 54 55 56 57 58 59 60 61 62 63 64 65 66 67 68 69 70 71 72 73 74 75 76 77 78 79 80 0
a 81 82 83 84 85 86 87 88 89 90 91 92 93 94 95 96 97 98 99 100 101 102 103 104 105 106 107 108 109 110 111 112 113 114 115 116 117 118 119 120 0
e 121 122 123 124 125 126 127 128 129 130 131 132 133 134 135 136 137 138 139 140 141 142 143 144 145 146 147 148 149 150 151 152 153 154 155 156 157 158 159 160 0
-10 42 -93 -121 0
37 -64 -96 -121 0
21 46 97 -121 0
-34 -64 100 -121 0
-2 -50 -105 -121 0
-38 61 -115 -121 0
-8 73 -82 121 0
-4 -70 91 121 0
-30 42 99 121 0
20 78 106 121 0
7 -44 110 121 0
37 -60 -117 121 0
3 -80 87 -122 0
8 -49 -88 -122 0
16 53 -100 -122 0
39 -75 -111 -122 0
-15 -50 -112 -122 0
18 78 118 -122 0
-4 65 -119 -122 0
6 42 119 -122 0
-5 79 -89 122 0
-7 79 -93 122 0
-36 77 -103 122 0
25 -67 -104 122 0
-24 -59 110 122 0
-3 -51 -117 122 0
-5 69 -81 -123 0
23 65 -83 -123 0
-13 76 -85 -123 0
-1 47 85 -123 0
-11 65 -86 -123 0
40 -60 93 -123 0
-38 76 97 -123 0
-11 -70 -102 -123 0
-17 -66 -107 -123 0
1 -80 114 -123 0
-32 -66 115 -123 0
21 51 84 123 0
5 69 99 123 0
-28 65 102 123 0
-8 78 -107 123 0
4 -80 109 123 0
-34 49 111 123 0
9 71 114 123 0
4 73 120 123 0
-7 78 85 -124 0
31 51 105 -124 0
-15 -69 105 -124 0
24 55 106 -124 0
-5 -64 109 -124 0
-19 69 -118 -124 0
1 46 118 -124 0
-31 -65 -81 124 0
-5 -71 -90 124 0
29 53 -108 124 0
18 62 -116 124 0
-32 54 -119 124 0
-19 80 -103 -125 0
-38 77 103 -125 0
39 51 -108 -125 0
40 74 -108 -125 0
-12 -51 -109 -125 0
13 44 115 -125 0
-19 -44 -118 -125 0
-36 -56 -84 125 0
-30 -54 86 125 0
-35 79 89 125 0
27 58 94 125 0
-13 -65 95 125 0
-21 -71 -96 125 0
23 -53 -108 125 0
-33 56 -110 125 0
-12 67 119 125 0
21 -67 84 -126 0
18 -67 -87 -126 0
-25 65 87 -126 0
-22 77 96 -126 0
12 42 108 -126 0
21 64 109 -126 0
9 66 90 126 0
37 -65 -94 126 0
-39 -69 -96 126 0
14 -41 -103 126 0
-35 -50 -103 126 0
-23 42 104 126 0
34 65 -105 126 0
37 -42 105 126 0
-29 42 107 126 0
-35 79 110 126 0
35 -42 115 126 0
-33 -42 120 126 0
-31 -67 -94 -127 0
-20 -50 -96 -127 0
-6 -60 108 -127 0
-13 -45 110 -127 0
20 46 -119 -127 0
-15 63 82 127 0
-33 76 89 127 0
-13 -48 -98 127 0
-33 54 102 127 0
4 74 105 127 0
-27 -45 119 127 0
-16 56 88 -128 0
-22 -44 -89 -128 0
-11 48 -93 -128 0
-21 80 -99 -128 0
-34 67 99 -128 0
-34 52 -102 -128 0
19 61 112 -128 0
22 -47 -120 -128 0
-40 -51 -120 -128 0
25 -75 -86 128 0
22 68 87 128 0
30 62 94 128 0
-16 63 -117 128 0
19 -51 85 -129 0
-10 -53 -94 -129 0
10 -69 94 -129 0
12 -44 104 -129 0
-7 -71 -105 -129 0
-21 61 108 -129 0
25 -46 113 -129 0
-35 -69 -119 -129 0
-22 70 -120 -129 0
-29 -74 -86 129 0
-22 -61 86 129 0
-24 62 -94 129 0
-33 70 -107 129 0
9 58 109 129 0
-11 -72 112 129 0
-34 78 -118 129 0
38 74 -119 129 0
-5 52 91 -130 0
-12 -67 98 -130 0
-16 53 -99 -130 0
1 -73 103 -130 0
-24 61 113 -130 0
36 -64 118 -130 0
-11 -57 -87 130 0
2 71 -88 130 0
20 75 -96 130 0
32 61 -97 130 0
4 45 107 130 0
-18 -78 -111 130 0
31 45 112 130 0
20 58 -115 130 0
-12 -75 118 130 0
-25 71 84 -131 0
17 49 85 -131 0
-20 53 -93 -131 0
32 -70 -93 -131 0
-14 -50 -96 -131 0
19 -50 -97 -131 0
29 66 -97 -131 0
28 73 -97 -131 0
-25 -79 106 -131 0
7 -46 113 -131 0
3 59 114 -131 0
6 51 117 -131 0
-4 63 -85 131 0
-9 -78 -85 131 0
40 52 101 131 0
15 66 102 131 0
24 46 112 131 0
18 56 -95 -132 0
-11 -45 101 -132 0
20 -80 -103 -132 0
-2 -70 -108 -132 0
-1 -48 -111 -132 0
6 -67 -117 -132 0
-5 -61 118 -132 0
24 -51 87 132 0
21 75 -88 132 0
-11 51 -89 132 0
25 -70 -106 132 0
28 -72 -109 132 0
-3 -48 114 132 0
14 -44 89 -133 0
-26 -41 90 -133 0
-33 -74 94 -133 0
15 -50 101 -133 0
-23 50 102 -133 0
-22 50 104 -133 0
30 53 -105 -133 0
-35 58 -119 -133 0
-32 71 82 133 0
-34 -52 -84 133 0
15 68 -91 133 0
20 -42 95 133 0
30 -75 97 133 0
13 67 100 133 0
29 68 -109 133 0
8 73 -113 133 0
31 -71 114 133 0
20 -76 -119 133 0
16 -56 120 133 0
-35 78 -81 -134 0
22 -43 81 -134 0
32 80 -88 -134 0
-25 70 94 -134 0
27 42 99 -134 0
-10 57 -100 -134 0
-20 42 100 -134 0
-4 57 -102 -134 0
-1 -63 -103 -134 0
7 -73 110 -134 0
-9 -50 114 -134 0
21 -48 -117 -134 0
-26 -54 -87 134 0
-6 63 92 134 0
7 51 -103 134 0
28 -65 104 134 0
5 -53 -116 134 0
9 62 116 134 0
30 43 86 -135 0
18 64 -97 -135 0
-34 74 -98 -135 0
22 -44 -104 -135 0
3 61 115 -135 0
-4 -71 -81 135 0
32 51 -84 135 0
33 -76 85 135 0
-29 -53 87 135 0
-30 -51 93 135 0
-1 -51 102 135 0
-33 -74 114 135 0
-15 -59 -117 135 0
-37 -76 83 -136 0
-14 -59 -99 -136 0
-40 -41 100 -136 0
-28 -49 116 -136 0
-30 -79 120 -136 0
8 -61 -82 136 0
-5 -46 91 136 0
-24 -54 91 136 0
-8 51 -92 136 0
-24 70 -103 136 0
-32 -41 -117 136 0
18 -52 -118 136 0
-17 -48 91 -137 0
18 46 -92 -137 0
-4 -46 -100 -137 0
35 -60 100 -137 0
-15 67 -102 -137 0
-21 48 107 -137 0
3 -63 -85 137 0
-1 68 -98 137 0
-8 -80 106 137 0
-34 -57 110 137 0
31 -56 113 137 0
9 -71 -85 -138 0
32 -46 -94 -138 0
6 -42 102 -138 0
8 79 108 -138 0
18 43 116 -138 0
-3 -77 -89 138 0
-8 -47 92 138 0
9 72 94 138 0
-18 -67 -99 138 0
29 65 100 138 0
23 -78 100 138 0
21 50 -109 138 0
-4 66 -114 138 0
-23 -77 116 138 0
6 60 117 138 0
-29 58 -81 -139 0
24 -68 -86 -139 0
-8 -54 -87 -139 0
-5 -48 -89 -139 0
32 -41 91 -139 0
-39 -50 -101 -139 0
-37 47 105 -139 0
-15 -46 86 139 0
27 41 -91 139 0
2 -44 -94 139 0
-14 -76 -95 139 0
31 58 95 139 0
-6 -71 104 139 0
3 -79 115 139 0
35 -52 -116 139 0
-40 -61 119 139 0
-11 61 87 -140 0
-36 64 92 -140 0
-5 -65 -100 -140 0
30 67 -101 -140 0
33 -57 -114 -140 0
19 -50 117 -140 0
1 67 -83 140 0
-30 -68 86 140 0
26 -44 92 140 0
-31 46 -95 140 0
-4 69 -97 140 0
31 -66 104 140 0
6 -43 -112 140 0
39 -60 -119 140 0
26 -51 81 -141 0
7 -55 -85 -141 0
-27 70 95 -141 0
-8 75 -101 -141 0
-34 -41 105 -141 0
-25 -71 -118 -141 0
-30 54 -120 -141 0
-20 74 93 141 0
-21 80 93 141 0
-4 -45 -97 141 0
26 54 -99 141 0
-20 61 -100 141 0
-29 70 -101 141 0
-26 -47 113 141 0
14 -47 115 141 0
-30 -75 117 141 0
35 55 -112 -142 0
24 58 -114 -142 0
25 79 -118 -142 0
-11 57 119 -142 0
25 58 83 142 0
27 53 -91 142 0
-38 -58 98 142 0
20 -48 103 142 0
-10 72 -106 142 0
-25 80 -109 142 0
19 43 113 142 0
-19 -73 -114 142 0
12 -44 118 142 0
29 71 -91 -143 0
36 66 91 -143 0
25 -73 91 -143 0
5 65 98 -143 0
-4 66 99 -143 0
-5 -55 -104 -143 0
2 57 -110 -143 0
34 69 111 -143 0
9 51 91 143 0
34 43 95 143 0
25 66 -108 143 0
-16 -72 111 143 0
-27 -41 87 -144 0
22 -74 92 -144 0
-23 -59 97 -144 0
-12 43 -108 -144 0
-22 -41 -110 -144 0
-2 -45 -83 144 0
24 -80 92 144 0
-26 42 106 144 0
-30 -61 -113 144 0
36 47 -115 144 0
23 -69 -96 -145 0
-33 -42 98 -145 0
-10 -68 -99 -145 0
-4 -60 108 -145 0
-22 75 110 -145 0
-39 -65 117 -145 0
23 -68 -83 145 0
40 -64 -89 145 0
30 51 92 145 0
-2 47 105 145 0
-24 -79 -109 145 0
7 44 119 145 0
-7 -72 83 -146 0
-8 80 -88 -146 0
-6 -43 99 -146 0
-39 41 -102 -146 0
-1 -71 -112 -146 0
-8 62 114 -146 0
32 51 118 -146 0
28 74 -81 146 0
3 -72 83 146 0
36 79 88 146 0
-10 -65 93 146 0
39 -43 -97 146 0
20 75 -99 146 0
-28 -76 -105 146 0
-3 69 110 146 0
11 -65 -112 146 0
36 -55 114 146 0
40 72 -119 146 0
-17 -41 -86 -147 0
-39 71 -87 -147 0
-8 51 90 -147 0
31 -66 -91 -147 0
-14 -66 -94 -147 0
16 -53 98 -147 0
-20 -63 99 -147 0
8 -77 112 -147 0
14 -51 -83 147 0
19 -68 -83 147 0
-35 68 89 147 0
-7 80 -92 147 0
-33 68 94 147 0
4 -41 -95 147 0
5 -43 -107 147 0
-16 -52 119 147 0
19 44 -99 -148 0
-11 72 -104 -148 0
22 71 -108 -148 0
14 -78 108 -148 0
-6 -48 -89 148 0
-37 78 -93 148 0
-2 -65 99 148 0
9 -64 109 148 0
35 -76 -112 148 0
2 -46 -114 148 0
-4 42 -81 -149 0
-38 71 82 -149 0
27 -66 -83 -149 0
-3 -69 85 -149 0
11 -49 -88 -149 0
10 55 -113 -149 0
-37 -63 115 -149 0
-11 64 -117 -149 0
-20 65 118 -149 0
24 -64 83 149 0
-29 -53 85 149 0
-9 41 -87 149 0
-7 -52 87 149 0
17 -71 87 149 0
6 76 -94 149 0
5 -42 -99 149 0
-21 -79 106 149 0
31 60 -107 149 0
-11 44 110 149 0
-7 -78 114 149 0
-8 46 -83 -150 0
39 46 83 -150 0
-5 -59 -91 -150 0
6 60 -96 -150 0
-23 -60 -110 -150 0
-22 -62 111 -150 0
-21 72 119 -150 0
5 -44 -91 150 0
27 -45 92 -151 0
-10 -71 93 -151 0
12 80 -95 -151 0
38 -78 114 -151 0
16 50 81 151 0
-24 -67 86 151 0
-15 67 -87 151 0
23 76 100 151 0
37 51 -119 151 0
22 -55 -119 151 0
-30 -77 -81 -152 0
6 -72 81 -152 0
-14 -56 82 -152 0
1 -65 -90 -152 0
-11 -61 102 -152 0
27 72 -103 -152 0
3 47 -113 -152 0
17 65 81 152 0
3 -75 82 152 0
3 -50 88 152 0
-40 -42 -103 152 0
-15 -57 104 152 0
12 -67 -116 152 0
-28 76 -117 152 0
16 -50 -118 152 0
32 64 92 -153 0
37 79 93 -153 0
-31 -68 98 -153 0
-20 -80 104 -153 0
-2 -72 -109 -153 0
-40 -52 88 153 0
9 72 107 153 0
12 -66 115 153 0
-8 49 -117 153 0
28 -53 117 153 0
26 -75 -119 153 0
-14 52 -88 -154 0
1 -69 -93 -154 0
19 -41 93 -154 0
14 49 -95 -154 0
-3 48 96 -154 0
14 -55 98 -154 0
12 44 -99 -154 0
-23 -50 102 -154 0
-16 -76 107 -154 0
-32 80 110 -154 0
-18 -75 113 -154 0
14 64 -114 -154 0
-12 -78 -82 154 0
40 -42 88 154 0
-26 -62 99 154 0
-19 66 106 154 0
-14 -80 84 -155 0
3 -65 -85 -155 0
33 -75 93 -155 0
-39 49 101 -155 0
-6 46 111 -155 0
10 54 111 -155 0
21 44 113 -155 0
-3 -53 -114 -155 0
29 -54 81 155 0
5 -78 -94 155 0
-6 61 -105 155 0
12 65 -112 155 0
-4 -63 -81 -156 0
-36 63 -83 -156 0
-6 -53 86 -156 0
19 74 -88 -156 0
-16 79 -97 -156 0
-35 -74 102 -156 0
37 -72 -106 -156 0
-31 -50 -84 156 0
36 -42 96 156 0
-1 59 102 156 0
-26 51 112 156 0
34 -62 112 156 0
-35 -74 -119 156 0
-2 -80 84 -157 0
-26 41 -85 -157 0
23 -68 88 -157 0
-16 52 -97 -157 0
-30 59 -101 -157 0
-34 -80 101 -157 0
18 58 -106 -157 0
-14 48 -109 -157 0
-11 -75 111 -157 0
30 71 113 -157 0
-31 -42 81 157 0
-7 78 -96 157 0
-5 70 98 157 0
-34 -64 -101 157 0
-20 52 -109 157 0
27 80 111 157 0
11 -48 105 -158 0
9 -41 -109 -158 0
19 -52 109 -158 0
10 80 112 -158 0
-23 43 -115 -158 0
16 -43 -83 158 0
-14 49 83 158 0
-7 78 -86 158 0
-38 -46 -87 158 0
32 -46 -89 158 0
26 76 90 158 0
-10 58 -104 158 0
-6 -61 -104 158 0
-18 52 105 158 0
32 59 -107 158 0
-8 -53 -109 158 0
40 -60 -111 158 0
20 -49 -84 -159 0
12 -71 -84 -159 0
27 -80 94 -159 0
-13 71 96 -159 0
-5 -47 110 -159 0
30 -78 110 -159 0
-15 56 -120 -159 0
12 -57 -85 159 0
36 -57 98 159 0
-21 73 119 159 0
-37 -59 -89 -160 0
34 49 -92 -160 0
-20 -43 -96 -160 0
-8 43 106 -160 0
19 80 106 -160 0
-2 79 112 -160 0
24 48 -116 -160 0
3 57 -86 160 0
-16 -61 -89 160 0
-28 -56 -97 160 0
14 74 -106 160 0
